c This cnf file is generated with the following input: k = 3, n = 150, r = 0.2
p cnf 150 30
5 11 124 0
100 -110 -48 0
116 22 -57 0
81 82 -62 0
-89 123 78 0
34 -69 -72 0
-145 -84 85 0
49 82 -55 0
-5 91 -79 0
-146 -38 -39 0
-88 58 -28 0
48 -63 31 0
146 68 42 0
1 -62 94 0
54 102 -110 0
121 -112 95 0
98 -100 -30 0
35 44 -61 0
32 40 121 0
66 117 -16 0
-39 -7 10 0
113 114 -69 0
-65 113 -143 0
-147 50 -99 0
80 117 126 0
150 -126 -30 0
69 -140 -29 0
-82 -99 126 0
-100 -138 -127 0
-50 118 -91 0
